100
128
31
11
55
7
54
48
57
51
12
37
57
27
44
16
61
16
63
11
35
54
23
29
10
28
57
18
58
27
19
46
11
60
59
15
41
53
24
28
13
23
48
33
23
11
16
14
18
32
33
12
18
18
33
1
22
2
22
13
7
16
2
34
13
63
1
19
37
22
3
1
13
57
3
24
47
53
1
14
59
4
1
16
3
2
16
14
18
62
30
1
2
31
5
4
44
64
49
3
3
62